GLPSOL: GLPK LP/MIP Solver, v4.55
Parameter(s) specified in the command line:
 -m tmp.mod
Reading model section from tmp.mod...
Reading data section from tmp.mod...
1244 lines were read
Generating obj...
Generating kirhoff...
Generating init_charge...
Generating batt_size...
Model has been successfully generated
GLPK Simplex Optimizer, v4.55
1620 rows, 2218 columns, 4618 non-zeros
Preprocessing...
1191 rows, 2064 columns, 4416 non-zeros
Scaling...
 A: min|aij| =  1.000e+00  max|aij| =  1.000e+00  ratio =  1.000e+00
Problem data seem to be well scaled
Constructing initial basis...
Size of triangular part is 966
      0: obj =   0.000000000e+00  infeas =  6.680e+02 (225)
*   207: obj =   5.900000000e+01  infeas =  0.000e+00 (220)
*   257: obj =   4.000000000e+00  infeas =  0.000e+00 (220)
OPTIMAL LP SOLUTION FOUND
Time used:   0.0 secs
Memory used: 4.5 Mb (4715689 bytes)
#OUTPUT:
4
0 0 -13 0 0 0 0 0 0 0 0 0 0 0 0 0 0 0 0 0 0 0 0 0 0 -13 0 0 0 0 0 0 0 0 0 0 0 0 0 0 0 0 0 0 0 0 0 0 0 0 0 0 0 0 0 0 0 0 0 0 0 0 0 0 0 0 
-3 0 -9 0 0 0 0 0 0 0 0 0 0 0 0 0 0 0 0 0 0 0 0 0 0 -9 0 0 0 0 0 0 0 0 -3 0 -3 0 0 0 0 0 0 -12 -12 0 0 0 0 0 0 0 0 0 0 0 0 0 0 0 0 0 0 0 0 0 
-2 0 0 0 0 -8 0 0 0 0 0 0 0 0 0 0 -8 0 0 0 -8 0 0 0 -8 0 0 0 0 0 0 0 0 0 0 0 -2 0 0 0 0 0 0 -16 0 0 0 0 0 0 0 0 0 0 0 0 0 0 0 0 0 0 0 0 0 0 
-3 0 -18 0 0 -31 0 0 0 0 0 -1 0 0 0 0 -31 -5 0 0 -33 0 0 2 -14 -17 0 0 9 -17 -14 0 0 -14 0 0 -3 0 0 7 0 0 0 -9 0 0 0 0 0 0 0 0 0 0 0 0 0 0 0 0 0 0 0 0 0 0 
0 0 -13 0 0 0 0 0 0 0 0 -13 0 -15 0 0 0 0 0 0 0 0 0 0 0 0 0 0 0 0 0 -14 0 0 0 0 0 0 0 0 0 -15 0 -19 0 0 0 0 0 0 0 0 0 0 0 0 0 0 0 0 0 0 0 0 0 0 
0 0 -32 1 0 0 0 1 0 0 0 -13 -1 0 -13 0 0 0 -1 0 0 0 0 0 0 -17 2 0 0 0 0 0 0 0 0 0 0 0 -3 0 17 -2 0 0 0 0 0 0 0 0 0 0 0 0 0 0 0 0 0 0 0 0 0 0 0 0 
0 0 -7 0 0 0 0 0 0 0 0 0 -3 0 0 0 0 0 0 0 0 -7 0 0 0 0 3 0 0 0 0 0 0 0 0 -3 0 0 -7 0 0 -3 0 0 0 0 0 0 0 0 0 0 0 0 0 0 0 0 0 0 0 0 0 0 0 0 
-1 0 0 0 0 1 1 0 0 0 0 0 0 0 0 0 0 3 0 0 0 0 0 0 0 0 0 0 9 0 0 0 0 0 0 0 0 0 0 9 0 0 0 -9 0 0 0 0 0 0 0 0 0 0 0 0 0 0 0 0 0 0 0 0 0 0 
-5 0 -21 0 -9 -25 -3 0 0 0 0 -1 0 0 0 0 -22 -5 0 0 -19 -11 0 -3 -19 0 0 0 9 0 0 0 0 0 3 0 3 0 -11 -5 0 0 0 -12 -3 0 0 0 0 0 0 0 0 0 0 0 0 0 0 0 0 0 0 0 0 0 
-2 -2 -23 0 0 0 0 0 0 0 0 -15 0 0 -16 0 0 0 0 0 0 -8 0 0 0 0 0 0 0 0 0 0 0 0 0 0 0 0 -8 0 0 0 0 0 0 0 0 0 0 0 0 0 0 0 0 0 0 0 0 0 0 0 0 0 0 0 
-1 0 -1 0 0 -2 -2 0 0 0 0 -1 -2 0 0 0 0 0 0 0 0 0 0 0 0 0 2 0 0 0 0 0 0 0 0 -2 0 0 0 0 0 -2 0 0 0 0 2 0 0 0 0 0 0 0 0 0 0 0 0 0 0 0 0 0 0 0 
-4 0 -7 0 0 -3 -3 0 0 0 0 1 0 0 0 0 0 2 0 0 0 0 0 0 0 -6 0 0 5 -6 0 0 0 0 0 0 -3 0 0 5 0 0 0 -5 0 0 0 0 0 0 0 0 0 0 0 0 0 0 0 0 0 0 0 0 0 0 
-5 0 0 0 0 0 0 0 0 0 0 0 0 0 0 0 0 0 0 0 0 0 0 0 0 0 0 0 0 0 0 0 0 0 0 0 0 0 0 0 0 0 0 0 0 0 0 0 0 0 0 0 0 0 0 0 0 0 0 0 0 0 0 0 0 0 
0 0 0 0 0 -14 0 0 -14 0 0 0 0 0 0 0 0 0 0 0 0 0 0 0 0 0 1 0 0 0 0 0 0 0 0 0 0 0 0 0 0 -15 14 0 0 0 0 0 0 0 0 0 0 0 0 0 0 0 0 0 0 0 0 0 0 0 
0 0 0 0 0 -28 0 0 -19 0 -19 0 0 0 0 0 -9 0 0 0 -9 0 0 0 -9 0 0 0 0 0 -9 0 0 -9 0 0 0 0 0 0 0 0 0 0 0 0 0 0 0 0 0 0 0 0 0 0 0 0 0 0 0 0 0 0 0 0 
#OUTPUT END
Model has been successfully processed
